Running for instance ./models/c207.txt
Generating routes...
Execution time:  2.870311  seconds
Academic license - for non-commercial use only
Warning: constraint name "Cliente esta na rota x1" has a space
Optimize a model with 26 rows, 10000 columns and 86663 nonzeros
Variable types: 0 continuous, 10000 integer (0 binary)
Coefficient statistics:
  Matrix range     [1e+00, 1e+00]
  Objective range  [2e+01, 3e+02]
  Bounds range     [1e+00, 1e+00]
  RHS range        [1e+00, 2e+01]
Found heuristic solution: objective 565.4254744
Presolve removed 4 rows and 5488 columns
Presolve time: 0.06s
Presolved: 22 rows, 4512 columns, 31118 nonzeros
Found heuristic solution: objective 512.0557823
Variable types: 0 continuous, 4512 integer (4512 binary)

Root relaxation: objective 2.721710e+02, 63 iterations, 0.00 seconds

    Nodes    |    Current Node    |     Objective Bounds      |     Work
 Expl Unexpl |  Obj  Depth IntInf | Incumbent    BestBd   Gap | It/Node Time

     0     0  272.17105    0    5  512.05578  272.17105  46.8%     -    0s
H    0     0                     376.2723399  272.17105  27.7%     -    0s
     0     0  272.17105    0    5  376.27234  272.17105  27.7%     -    0s
H    0     0                     289.1292836  272.17105  5.87%     -    0s

Explored 1 nodes (63 simplex iterations) in 0.13 seconds
Thread count was 8 (of 8 available processors)

Solution count 3: 289.129 376.272 512.056 

Optimal solution found (tolerance 1.00e-04)
Best objective 2.891292836363e+02, best bound 2.891292836363e+02, gap 0.0000%

Routes:
8 10 11 9 15 17 13 25 21
24 22 20 6 23 19 18 16 14 12
5 2 1 7 3 4

Distance: 289.129283636
Execution time:  3.875741  seconds
